% demand
num_movements = 29;
loading_factor = [1700, 1050, 1800, 1600, 1350, 1600, 1350, 1750, 1150, 800, 1100, 800, 1150, 1200, 1700, 1150, 1250, 1800, 1950, 1800, 1000, 1150, 950, 2000, 1750, 950, 1650, 950, 2000];
pickup_time = [0, 0, 1, 2, 2, 2, 2, 2, 2, 2, 2, 4, 5, 5, 5, 5, 5, 5, 5, 7, 7, 7, 7, 7, 8, 9, 9, 9, 9];
delivery_time = [1, 1, 2, 5, 4, 5, 4, 3, 4, 5, 5, 7, 7, 6, 7, 7, 7, 10, 7, 8, 9, 8, 10, 10, 9, 10, 10, 10, 10];

% transporter definition
total_capacity = 11000;
num_decks = 4;
capacity = [3000, 3000, 1000, 4000];

% ways out of decks
num_ways_out = 2;
paths_out = array3d(decks, ways_out, decks, [
% ways out of deck d1
2, 4, 0, 0, 3, 4, 0, 0, 

% ways out of deck d2
4, 0, 0, 0, 0, 0, 0, 0,	

% ways out of deck d3
4, 0, 0, 0, 0, 0, 0, 0,	

% ways out of deck d4
0, 0, 0, 0,	0, 0, 0, 0,	

]);

